instances/p2/p2_6_20-1.dzn
Alphabet = {A,C,G,T};
ns = 6;
nc = 8;
neighbours = [| I(T),I(A),I(C),I(T),Null,Null,Null,Null | I(G),I(A),Null,Null,Null,Null,Null,Null | I(A),I(G),I(T),I(G),I(T),I(T),I(A),I(C) | Null,Null,Null,Null,Null,Null,Null,Null | I(T),I(T),I(A),Null,Null,Null,Null,Null | I(T),Null,Null,Null,Null,Null,Null,Null |];
