instances/p2/p2_6_20-1.txt
{
	"num_strings": 6,
	"alphabet": "ACGT",
	"strings": [
		"TACT",
		"GA",
		"AGTGTTAC",
		"",
		"TTA",
		"T"
	],
	"str_length":[4,2,8,0,3,1]
}